c nombre: 47
c densidad: 0.5
p edges 45 505
e 1 2
e 1 4
e 1 6
e 1 7
e 1 9
e 1 12
e 1 13
e 1 14
e 1 17
e 1 18
e 1 20
e 1 21
e 1 22
e 1 25
e 1 27
e 1 28
e 1 29
e 1 31
e 1 35
e 1 37
e 1 38
e 1 39
e 1 40
e 1 41
e 1 42
e 1 43
e 1 44
e 1 45
e 2 3
e 2 8
e 2 9
e 2 13
e 2 14
e 2 15
e 2 21
e 2 22
e 2 25
e 2 27
e 2 30
e 2 31
e 2 32
e 2 35
e 2 36
e 2 39
e 2 45
e 3 5
e 3 7
e 3 9
e 3 11
e 3 12
e 3 13
e 3 16
e 3 21
e 3 22
e 3 24
e 3 25
e 3 26
e 3 27
e 3 28
e 3 31
e 3 32
e 3 33
e 3 34
e 3 35
e 3 38
e 3 40
e 3 43
e 3 44
e 4 5
e 4 7
e 4 8
e 4 9
e 4 10
e 4 12
e 4 14
e 4 17
e 4 19
e 4 20
e 4 24
e 4 25
e 4 26
e 4 27
e 4 28
e 4 30
e 4 31
e 4 35
e 4 36
e 4 37
e 4 38
e 4 41
e 4 42
e 4 43
e 4 45
e 5 8
e 5 12
e 5 14
e 5 17
e 5 19
e 5 20
e 5 21
e 5 24
e 5 25
e 5 27
e 5 29
e 5 30
e 5 32
e 5 33
e 5 35
e 5 36
e 5 40
e 5 42
e 5 45
e 6 7
e 6 14
e 6 15
e 6 18
e 6 19
e 6 21
e 6 22
e 6 25
e 6 26
e 6 29
e 6 31
e 6 32
e 6 36
e 6 37
e 6 38
e 6 42
e 6 43
e 7 15
e 7 16
e 7 17
e 7 20
e 7 21
e 7 25
e 7 26
e 7 28
e 7 31
e 7 32
e 7 34
e 7 39
e 7 40
e 7 42
e 7 43
e 7 44
e 8 11
e 8 12
e 8 14
e 8 16
e 8 17
e 8 21
e 8 23
e 8 24
e 8 25
e 8 28
e 8 29
e 8 32
e 8 34
e 8 38
e 8 40
e 8 44
e 8 45
e 9 10
e 9 12
e 9 13
e 9 14
e 9 17
e 9 18
e 9 20
e 9 23
e 9 24
e 9 25
e 9 26
e 9 27
e 9 28
e 9 31
e 9 32
e 9 38
e 9 39
e 9 44
e 9 45
e 10 15
e 10 18
e 10 19
e 10 21
e 10 22
e 10 24
e 10 25
e 10 27
e 10 28
e 10 30
e 10 31
e 10 34
e 10 37
e 10 39
e 10 40
e 10 42
e 10 43
e 10 45
e 11 13
e 11 19
e 11 22
e 11 24
e 11 26
e 11 29
e 11 30
e 11 31
e 11 35
e 11 36
e 11 38
e 11 44
e 12 13
e 12 17
e 12 18
e 12 20
e 12 21
e 12 22
e 12 24
e 12 27
e 12 28
e 12 30
e 12 31
e 12 32
e 12 33
e 12 34
e 12 35
e 12 37
e 12 38
e 12 39
e 12 40
e 13 17
e 13 18
e 13 20
e 13 21
e 13 26
e 13 28
e 13 29
e 13 33
e 13 35
e 13 36
e 13 37
e 13 39
e 13 40
e 13 41
e 13 42
e 13 45
e 14 15
e 14 16
e 14 17
e 14 19
e 14 20
e 14 22
e 14 23
e 14 26
e 14 27
e 14 28
e 14 29
e 14 30
e 14 35
e 14 37
e 14 39
e 14 40
e 14 41
e 14 43
e 14 44
e 14 45
e 15 16
e 15 18
e 15 19
e 15 23
e 15 25
e 15 26
e 15 29
e 15 30
e 15 31
e 15 33
e 15 36
e 15 39
e 15 40
e 15 42
e 15 44
e 15 45
e 16 17
e 16 18
e 16 21
e 16 23
e 16 24
e 16 25
e 16 26
e 16 28
e 16 29
e 16 30
e 16 31
e 16 32
e 16 33
e 16 34
e 16 35
e 16 36
e 16 37
e 16 40
e 16 43
e 17 18
e 17 19
e 17 22
e 17 23
e 17 25
e 17 27
e 17 29
e 17 32
e 17 33
e 17 34
e 17 38
e 17 40
e 17 42
e 17 43
e 17 44
e 17 45
e 18 19
e 18 20
e 18 22
e 18 26
e 18 27
e 18 29
e 18 31
e 18 33
e 18 36
e 18 37
e 18 38
e 19 21
e 19 22
e 19 23
e 19 24
e 19 25
e 19 26
e 19 28
e 19 29
e 19 31
e 19 32
e 19 34
e 19 35
e 19 37
e 19 38
e 19 40
e 19 41
e 19 43
e 19 44
e 19 45
e 20 21
e 20 22
e 20 25
e 20 27
e 20 28
e 20 29
e 20 30
e 20 32
e 20 33
e 20 35
e 20 38
e 20 39
e 20 40
e 20 42
e 21 23
e 21 24
e 21 29
e 21 32
e 21 33
e 21 35
e 21 36
e 21 37
e 21 41
e 21 43
e 21 44
e 21 45
e 22 26
e 22 27
e 22 31
e 22 32
e 22 38
e 22 43
e 23 27
e 23 28
e 23 29
e 23 31
e 23 33
e 23 34
e 23 35
e 23 36
e 23 39
e 23 42
e 24 25
e 24 27
e 24 28
e 24 29
e 24 31
e 24 32
e 24 34
e 24 36
e 24 38
e 24 39
e 24 42
e 24 45
e 25 26
e 25 28
e 25 31
e 25 33
e 25 35
e 25 40
e 25 41
e 25 42
e 25 43
e 26 27
e 26 28
e 26 31
e 26 32
e 26 33
e 26 36
e 26 38
e 26 39
e 26 40
e 26 43
e 26 44
e 27 29
e 27 31
e 27 32
e 27 34
e 27 35
e 27 36
e 27 38
e 27 40
e 27 41
e 28 29
e 28 30
e 28 33
e 28 38
e 28 41
e 28 43
e 28 45
e 29 30
e 29 32
e 29 35
e 29 39
e 29 40
e 29 45
e 30 32
e 30 34
e 30 35
e 30 36
e 30 38
e 30 39
e 31 32
e 31 33
e 31 34
e 31 38
e 31 39
e 31 40
e 31 41
e 31 44
e 31 45
e 32 36
e 32 38
e 32 39
e 32 40
e 32 41
e 32 43
e 32 45
e 33 39
e 33 41
e 33 43
e 33 45
e 34 36
e 34 38
e 34 40
e 34 41
e 34 42
e 34 43
e 34 44
e 34 45
e 35 38
e 35 40
e 35 41
e 35 42
e 35 44
e 36 37
e 36 44
e 37 42
e 37 43
e 37 44
e 37 45
e 38 40
e 38 44
e 39 40
e 39 41
e 39 42
e 39 45
e 40 42
e 40 43
e 40 44
e 40 45
e 41 42
e 41 43
e 41 45
e 42 44
e 42 45
e 43 45
e 44 45
